LOC = { BASE, L1, L2, L3, L4, L5, L6, L7, L8, L9, L10, L11, L12, L13, L14, L15, L16, L17, L18, L19 };
base = BASE;
%       b   1   2   3   4   5   6   7   8   9  10  11  12  13  14  15  16  17  18  19
% d = [|  0,  2,  4,  6,  8, 10,  8,  6,  4,  2,  4,  6,  8, 10, 12, 10,  8,  6,  4,  2 
%      |  2,  0,  2,  4, 30, 30, 30, 30, 30, 30,  2, 30, 30, 30, 30, 30, 30, 30, 30, 30 
%      |  4,  2,  0,  2,  4, 30, 30, 30, 30, 30, 30,  2, 30, 30, 30, 30, 30, 30, 30, 30
%      |  6,  4,  2,  0,  2,  4, 30, 30, 30, 30, 30, 30,  2, 30, 30, 30, 30, 30, 30, 30  
%      |  8, 30,  4,  2,  0,  2,  4, 30, 30, 30, 30, 30, 30,  2, 30, 30, 30, 30, 30, 30
%      | 10, 30, 30,  4,  2,  0,  2,  4, 30, 30, 30, 30, 30, 30,  2, 30, 30, 30, 30, 30
%      |  8, 30, 30, 30,  4,  2,  0,  2,  4, 30, 30, 30, 30, 30, 30,  2, 30, 30, 30, 30
%      |  6, 30, 30, 30, 30,  4,  2,  0,  2,  4, 30, 30, 30, 30, 30, 30,  2, 30, 30, 30
%      |  4, 30, 30, 30, 30, 30,  4,  2,  0,  2, 30, 30, 30, 30, 30, 30, 30,  2, 30, 30
%      |  2, 30, 30, 30, 30, 30, 30,  4,  2,  0, 30, 30, 30, 30, 30, 30, 30, 30,  2, 30
%      |  4   2, 30, 30, 30, 30, 30, 30, 30, 30,  0, 30, 30, 30, 30, 30, 30, 30, 30, 30
%      |  6, 30,  2, 30, 30, 30, 30, 30, 30, 30, 30,  0, 30, 30, 30, 30, 30, 30, 30, 30
%      |  8, 30, 30,  2, 30, 30, 30, 30, 30, 30, 30, 30,  0, 30, 30, 30, 30, 30, 30, 30
%      | 10, 30, 30, 30,  2, 30, 30, 30, 30, 30, 30, 30, 30,  0, 30, 30, 30, 30, 30, 30
%      | 12, 30, 30, 30, 30,  2, 30, 30, 30, 30, 30, 30, 30, 30,  0, 30, 30, 30, 30, 30
%      | 10, 30, 30, 30, 30, 30,  2, 30, 30, 30, 30, 30, 30, 30, 30,  0, 30, 30, 30, 30
%      |  8, 30, 30, 30, 30, 30, 30,  2, 30, 30, 30, 30, 30, 30, 30, 30,  0, 30, 30, 30
%      |  6, 30, 30, 30, 30, 30, 30, 30,  2, 30, 30, 30, 30, 30, 30, 30, 30,  0, 30, 30
%      |  4, 30, 30, 30, 30, 30, 30, 30, 30,  2, 30, 30, 30, 30, 30, 30, 30, 30,  0, 30
%      |  2, 30, 30, 30, 30, 30, 30, 30, 30, 30, 30, 30, 30, 30, 30, 30, 30, 30, 30,  0
%      |];      
d = array2d(LOC,LOC,
    [  0,  2,  4,  6,  8, 10,  8,  6,  4,  2,  4,  6,  8, 10, 12, 10,  8,  6,  4,  2 
     ,  2,  0,  2,  4, 30, 30, 30, 30, 30, 30,  2, 30, 30, 30, 30, 30, 30, 30, 30, 30 
     ,  4,  2,  0,  2,  4, 30, 30, 30, 30, 30, 30,  2, 30, 30, 30, 30, 30, 30, 30, 30
     ,  6,  4,  2,  0,  2,  5, 30, 30, 30, 30, 30, 30,  2, 30, 30, 30, 30, 30, 30, 30  
     ,  8, 30,  4,  2,  0,  2,  4, 30, 30, 30, 30, 30, 30,  2, 30, 30, 30, 30, 30, 30
     , 10, 30, 30,  5,  2,  0,  2,  5, 30, 30, 30, 30, 30, 30,  2, 30, 30, 30, 30, 30
     ,  8, 30, 30, 30,  4,  2,  0,  2,  4, 30, 30, 30, 30, 30, 30,  2, 30, 30, 30, 30
     ,  6, 30, 30, 30, 30,  5,  2,  0,  2,  4, 30, 30, 30, 30, 30, 30,  2, 30, 30, 30
     ,  4, 30, 30, 30, 30, 30,  4,  2,  0,  2, 30, 30, 30, 30, 30, 30, 30,  2, 30, 30
     ,  2, 30, 30, 30, 30, 30, 30,  4,  2,  0, 30, 30, 30, 30, 30, 30, 30, 30,  2, 30
     ,  4,  2, 30, 30, 30, 30, 30, 30, 30, 30,  0, 30, 30, 30, 30, 30, 30, 30, 30, 30
     ,  6, 30,  2, 30, 30, 30, 30, 30, 30, 30, 30,  0, 30, 30, 30, 30, 30, 30, 30, 30
     ,  8, 30, 30,  2, 30, 30, 30, 30, 30, 30, 30, 30,  0, 30, 30, 30, 30, 30, 30, 30
     , 10, 30, 30, 30,  2, 30, 30, 30, 30, 30, 30, 30, 30,  0, 30, 30, 30, 30, 30, 30
     , 12, 30, 30, 30, 30,  2, 30, 30, 30, 30, 30, 30, 30, 30,  0, 30, 30, 30, 30, 30
     , 10, 30, 30, 30, 30, 30,  2, 30, 30, 30, 30, 30, 30, 30, 30,  0, 30, 30, 30, 30
     ,  8, 30, 30, 30, 30, 30, 30,  2, 30, 30, 30, 30, 30, 30, 30, 30,  0, 30, 30, 30
     ,  6, 30, 30, 30, 30, 30, 30, 30,  2, 30, 30, 30, 30, 30, 30, 30, 30,  0, 30, 30
     ,  4, 30, 30, 30, 30, 30, 30, 30, 30,  2, 30, 30, 30, 30, 30, 30, 30, 30,  0, 30
     ,  2, 30, 30, 30, 30, 30, 30, 30, 30, 30, 30, 30, 30, 30, 30, 30, 30, 30, 30,  0
     ]);      
n = 6;
wild = [0, 0, 1, 0, 0, 0, 1, 0, 1, 1, 4, 2, 3, 5, 30, 20, 2, 1, 5, 4];
move = 3;
link = 4;
mind = 2;
cost = [0, 4, 4, 4, 4, 4, 4, 4, 4, 4, 1, 1, 1, 1, 1, 1, 1, 1, 1, 1];
opcost = 9;
budget = 230;
